COMMENT : path
TYPE: TSP
DIMENSION: 8
EDGE_WEIGHT_TYPE: EUC_3D
NODE_COORD_SECTION
1 63.5382 18.3049 52.6387
2 60.7753 21.4415 21.2906
3 66.8088 17.1509 48.8921
4 58.7726 23.5806 33.2874
5 70.9556 9.20182 52.5688
6 75.5167 -6.53219 42.5964
7 -18.4623 -19.0309 69.6888
8 -9.78027 -25.7776 76.4979
